(set-logic QF_S)
(declare-fun var0 () String)
(declare-fun var1 () String)
(declare-fun var2 () String)
(declare-fun var3 () String)
(declare-fun var4 () String)
(declare-fun var5 () String)
(declare-fun var6 () String)
(declare-fun var7 () String)
(declare-fun var8 () String)
(declare-fun var9 () String)
(declare-fun var10 () String)
(declare-fun var11 () String)
(declare-fun var12 () String)
(declare-fun var13 () String)
(declare-fun var14 () String)
(declare-fun var15 () String)
(declare-fun var16 () String)
(declare-fun var17 () String)
(declare-fun var18 () String)
(declare-fun var19 () String)
(declare-fun var20 () String)
(declare-fun var21 () String)
(declare-fun var22 () String)
(declare-fun var23 () String)
(declare-fun var24 () String)
(declare-fun var25 () String)
(declare-fun var26 () String)
(declare-fun var27 () String)
(declare-fun var28 () String)
(declare-fun var29 () String)
(declare-fun var30 () String)
(declare-fun var31 () String)
(declare-fun var32 () String)
(declare-fun var33 () String)
(declare-fun var34 () String)
(declare-fun var35 () String)
(declare-fun var36 () String)
(declare-fun var37 () String)
(declare-fun var38 () String)
(declare-fun var39 () String)
(declare-fun var40 () String)
(declare-fun var41 () String)
(declare-fun var42 () String)
(declare-fun var43 () String)
(declare-fun var44 () String)
(declare-fun var45 () String)
(declare-fun var46 () String)
(declare-fun var47 () String)
(declare-fun var48 () String)
(declare-fun var49 () String)
(declare-fun var50 () String)
(declare-fun var51 () String)
(declare-fun var52 () String)
(declare-fun var53 () String)
(declare-fun var54 () String)
(declare-fun var55 () String)
(declare-fun var56 () String)
(declare-fun var57 () String)
(declare-fun var58 () String)
(declare-fun var59 () String)
(declare-fun var60 () String)
(assert (= var0 (Concat var1 var2)))
(assert (= var2 (Concat var3 var4)))
(assert (= var4 (Concat var5 var6)))
(assert (= var6 (Concat var7 var8)))
(assert (= var8 (Concat var9 var10)))
(assert (= var10 (Concat var11 var12)))
(assert (= var12 (Concat var13 var14)))
(assert (= var14 (Concat var15 var16)))
(assert (= var16 (Concat var17 var18)))
(assert (= var18 (Concat var19 var20)))
(assert (= var20 (Concat var21 var22)))
(assert (= var22 (Concat var23 var24)))
(assert (= var24 (Concat var25 var26)))
(assert (= var26 (Concat var27 var28)))
(assert (= var28 (Concat var29 var30)))
(assert (= var30 (Concat var31 var32)))
(assert (= var32 (Concat var33 var34)))
(assert (= var34 (Concat var35 var36)))
(assert (= var36 (Concat var37 var38)))
(assert (= var38 (Concat var39 var40)))
(assert (= var40 (Concat var41 var42)))
(assert (= var42 (Concat var43 var44)))
(assert (= var44 (Concat var45 var46)))
(assert (= var46 (Concat var47 var48)))
(assert (= var48 (Concat var49 var50)))
(assert (= var50 (Concat var51 var52)))
(assert (= var52 (Concat var53 var54)))
(assert (= var54 (Concat var55 var56)))
(assert (= var56 (Concat var57 var58)))
(assert (= var58 (Concat var59 var60)))
(assert (= var0 "solution"))
(assert (= "=" (CharAt var53 235)))
(assert (= "T" (CharAt var37 136)))
(assert (= "J" (CharAt var27 963)))
(assert (= ")" (CharAt var5 796)))
(assert (= "u" (CharAt var57 651)))
(assert (= "D" (CharAt var57 680)))
(assert (= "i" (CharAt var18 11)))
(assert (= "p" (CharAt var30 362)))
(assert (= "2" (CharAt var14 976)))
(assert (= "{" (CharAt var53 127)))
(assert (= "r" (CharAt var3 90)))
(assert (= "B" (CharAt var4 751)))
(assert (= "L" (CharAt var25 89)))
(assert (= "K" (CharAt var9 518)))
(assert (= "V" (CharAt var12 657)))
(assert (= "(" (CharAt var41 687)))
(assert (= "!" (CharAt var17 549)))
(assert (= ";" (CharAt var23 723)))
(assert (= "t" (CharAt var49 71)))
(assert (= "'" (CharAt var33 836)))
(assert (= "s" (CharAt var40 286)))
(assert (= "%" (CharAt var49 80)))
(assert (= "3" (CharAt var13 324)))
(assert (= "t" (CharAt var6 571)))
(assert (= "T" (CharAt var7 419)))
(assert (= "r" (CharAt var58 261)))
(assert (= "w" (CharAt var44 744)))
(assert (= "E" (CharAt var26 150)))
(assert (= "9" (CharAt var18 487)))
(assert (= "&" (CharAt var54 135)))
(assert (= "D" (CharAt var5 989)))
(assert (= ";" (CharAt var51 951)))
(assert (= "R" (CharAt var47 251)))
(assert (= "U" (CharAt var2 628)))
(assert (= "T" (CharAt var18 158)))
(assert (= "s" (CharAt var39 296)))
(assert (= "b" (CharAt var9 741)))
(assert (= "m" (CharAt var30 990)))
(assert (= "M" (CharAt var26 411)))
(assert (= "Z" (CharAt var8 766)))
(assert (= "7" (CharAt var18 807)))
(assert (= "o" (CharAt var14 649)))
(assert (= "%" (CharAt var29 304)))
(assert (= "a" (CharAt var23 175)))
(assert (= "m" (CharAt var54 504)))
(assert (= "E" (CharAt var31 864)))
(assert (= "$" (CharAt var16 766)))
(assert (= "/" (CharAt var6 448)))
(assert (= "g" (CharAt var30 401)))
(assert (= "W" (CharAt var12 828)))
(assert (= "9" (CharAt var32 588)))
(assert (= "0" (CharAt var56 943)))
(assert (= "8" (CharAt var28 453)))
(assert (= "7" (CharAt var38 351)))
(assert (= "," (CharAt var42 195)))
(assert (= "." (CharAt var52 454)))
(assert (= "*" (CharAt var25 979)))
(assert (= "h" (CharAt var36 38)))
(assert (= "K" (CharAt var59 633)))
(assert (= "j" (CharAt var1 754)))
(assert (= "I" (CharAt var49 410)))
(assert (= "~" (CharAt var29 840)))
(assert (= "h" (CharAt var52 479)))
(assert (= "A" (CharAt var18 154)))
(assert (= "w" (CharAt var2 915)))
(assert (= "P" (CharAt var21 140)))
(assert (= "[" (CharAt var30 488)))
(assert (= "*" (CharAt var40 908)))
(assert (= "o" (CharAt var53 148)))
(assert (= "q" (CharAt var19 749)))
(assert (= "D" (CharAt var10 11)))
(assert (= "x" (CharAt var58 128)))
(assert (= "M" (CharAt var3 220)))
(assert (= "?" (CharAt var18 459)))
(assert (= "I" (CharAt var36 401)))
(assert (= "y" (CharAt var4 455)))
(assert (= "x" (CharAt var46 419)))
(assert (= "v" (CharAt var45 79)))
(assert (= "<" (CharAt var20 597)))
(assert (= "A" (CharAt var33 849)))
(assert (= "M" (CharAt var49 803)))
(assert (= "H" (CharAt var51 115)))
(assert (= "}" (CharAt var34 529)))
(assert (= "1" (CharAt var40 7)))
(assert (= "'" (CharAt var16 329)))
(assert (= "h" (CharAt var8 170)))
(assert (= "," (CharAt var24 312)))
(assert (= "`" (CharAt var36 995)))
(assert (= "u" (CharAt var11 124)))
(assert (= "^" (CharAt var32 612)))
(assert (= "V" (CharAt var44 314)))
(assert (= ";" (CharAt var32 385)))
(assert (= "K" (CharAt var53 50)))
(assert (= "(" (CharAt var39 27)))
(assert (= "-" (CharAt var38 296)))
(assert (= "H" (CharAt var60 373)))
(assert (= "m" (CharAt var23 931)))
(assert (= "&" (CharAt var10 888)))
(assert (= "6" (CharAt var19 650)))
(assert (= "f" (CharAt var15 847)))
(assert (= "Y" (CharAt var2 544)))
(assert (= "b" (CharAt var32 210)))
(assert (= "/" (CharAt var8 342)))
(assert (= ";" (CharAt var51 884)))
(assert (= "!" (CharAt var55 792)))
(assert (= "K" (CharAt var27 306)))
(assert (= "`" (CharAt var43 257)))
(assert (= "9" (CharAt var46 182)))
(assert (= "," (CharAt var5 611)))
(assert (= "U" (CharAt var32 397)))
(assert (= "c" (CharAt var48 809)))
(assert (= "\\" (CharAt var36 545)))
(assert (= "y" (CharAt var38 100)))
(assert (= "8" (CharAt var24 699)))
(assert (= "+" (CharAt var55 497)))
(assert (= "4" (CharAt var58 349)))
(assert (= "e" (CharAt var4 906)))
(assert (= "i" (CharAt var39 202)))
(assert (= "/" (CharAt var34 825)))
(assert (= "m" (CharAt var34 264)))
(assert (= "o" (CharAt var32 130)))
(assert (= "Q" (CharAt var37 708)))
(assert (= "Z" (CharAt var51 591)))
(assert (= "a" (CharAt var48 926)))
(assert (= "b" (CharAt var51 874)))
(assert (= ";" (CharAt var4 302)))
(assert (= "{" (CharAt var6 215)))
(assert (= "F" (CharAt var26 919)))
(assert (= "5" (CharAt var11 819)))
(assert (= "y" (CharAt var13 989)))
(assert (= "B" (CharAt var14 373)))
(assert (= "C" (CharAt var2 863)))
(assert (= "m" (CharAt var49 372)))
(assert (= "w" (CharAt var31 548)))
(assert (= "M" (CharAt var36 874)))
(assert (= "$" (CharAt var49 22)))
(assert (= "}" (CharAt var60 558)))
(assert (= "'" (CharAt var13 766)))
(assert (= "&" (CharAt var43 476)))
(assert (= "5" (CharAt var16 634)))
(assert (= "|" (CharAt var54 481)))
(assert (= "Y" (CharAt var27 1000)))
(assert (= "Y" (CharAt var57 916)))
(assert (= "^" (CharAt var48 792)))
(assert (= "(" (CharAt var52 152)))
(assert (= "Q" (CharAt var13 661)))
(assert (= "4" (CharAt var34 716)))
(assert (= "." (CharAt var6 753)))
(assert (= "Q" (CharAt var35 808)))
(assert (= "p" (CharAt var55 351)))
(assert (= "P" (CharAt var55 39)))
(assert (= "8" (CharAt var55 788)))
(assert (= "4" (CharAt var25 605)))
(assert (= "Q" (CharAt var10 235)))
(assert (= "I" (CharAt var18 69)))
(assert (= "B" (CharAt var10 364)))
(assert (= "P" (CharAt var35 213)))
(assert (= "8" (CharAt var4 35)))
(assert (= "B" (CharAt var53 729)))
(assert (= "k" (CharAt var49 852)))
(assert (= "C" (CharAt var46 704)))
(assert (= "d" (CharAt var17 26)))
(assert (= "z" (CharAt var41 831)))
(assert (= "p" (CharAt var31 244)))
(assert (= "Y" (CharAt var33 789)))
(assert (= "z" (CharAt var0 590)))
(assert (= "7" (CharAt var10 434)))
(assert (= "Q" (CharAt var50 552)))
(assert (= "{" (CharAt var9 380)))
(assert (= ":" (CharAt var46 675)))
(assert (= "u" (CharAt var7 100)))
(assert (= "$" (CharAt var56 836)))
(assert (= "1" (CharAt var15 9)))
(assert (= "g" (CharAt var31 583)))
(assert (= "-" (CharAt var37 499)))
(assert (= "G" (CharAt var24 124)))
(assert (= "J" (CharAt var35 719)))
(assert (= "\"" (CharAt var4 889)))
(assert (= "@" (CharAt var37 438)))
(assert (= "J" (CharAt var4 291)))
(assert (= "F" (CharAt var50 562)))
(assert (= "J" (CharAt var3 705)))
(assert (= "{" (CharAt var28 354)))
(assert (= "P" (CharAt var54 377)))
(assert (= "D" (CharAt var21 898)))
(assert (= "R" (CharAt var47 891)))
(assert (= "E" (CharAt var31 853)))
(assert (= "Q" (CharAt var53 106)))
(assert (= "k" (CharAt var3 124)))
(assert (= "o" (CharAt var29 1000)))
(assert (= "$" (CharAt var52 626)))
(assert (= "r" (CharAt var7 139)))
(assert (= "{" (CharAt var30 210)))
(assert (= "%" (CharAt var0 973)))
(assert (= "<" (CharAt var22 297)))
(assert (= ";" (CharAt var23 332)))
(assert (= "w" (CharAt var50 734)))
(assert (= "h" (CharAt var4 551)))
(assert (= "N" (CharAt var17 375)))
(assert (= "i" (CharAt var52 534)))
(assert (= "0" (CharAt var44 138)))
(assert (= "4" (CharAt var3 154)))
(assert (= "k" (CharAt var52 591)))
(assert (= "H" (CharAt var59 2)))
(assert (= "p" (CharAt var40 772)))
(assert (= "D" (CharAt var49 87)))
(assert (= "b" (CharAt var59 538)))
(assert (= "l" (CharAt var7 66)))
(assert (= ":" (CharAt var47 802)))
(assert (= "v" (CharAt var14 73)))
(assert (= "u" (CharAt var43 624)))
(assert (= "5" (CharAt var36 978)))
(assert (= "!" (CharAt var25 284)))
(assert (= "U" (CharAt var32 605)))
(assert (= "A" (CharAt var22 337)))
(assert (= "M" (CharAt var36 327)))
(assert (= "#" (CharAt var19 919)))
(assert (= "0" (CharAt var11 982)))
(assert (= "W" (CharAt var24 846)))
(assert (= ")" (CharAt var23 851)))
(assert (= "@" (CharAt var9 372)))
(assert (= "l" (CharAt var47 135)))
(assert (= "d" (CharAt var1 723)))
(assert (= "," (CharAt var28 576)))
(assert (= "$" (CharAt var12 908)))
(assert (= "9" (CharAt var21 254)))
(assert (= "!" (CharAt var31 734)))
(assert (= "=" (CharAt var43 415)))
(assert (= "/" (CharAt var45 160)))
(assert (= "Y" (CharAt var27 86)))
(assert (= "o" (CharAt var11 290)))
(assert (= "Q" (CharAt var22 371)))
(assert (= "0" (CharAt var57 880)))
(assert (= "w" (CharAt var50 299)))
(assert (= "I" (CharAt var60 578)))
(assert (= "y" (CharAt var57 703)))
(assert (= "e" (CharAt var29 60)))
(assert (= ">" (CharAt var35 138)))
(assert (= "u" (CharAt var6 335)))
(assert (= "p" (CharAt var44 1)))
(assert (= "u" (CharAt var55 645)))
(check-sat)